p min 49 520
n 7 -769156.0
n 8 25985.0
n 9 25985.0
n 10 20788.0
n 11 20788.0
n 13 10394.0
n 14 10394.0
n 16 5197.0
n 17 5197.0
n 19 20788.0
n 20 15591.0
n 21 15591.0
n 22 15591.0
n 24 15591.0
n 25 10394.0
n 27 20788.0
n 28 25985.0
n 29 25985.0
n 30 20788.0
n 31 20788.0
n 32 20788.0
n 34 31182.0
n 35 31182.0
n 37 36379.0
n 38 36379.0
n 39 31182.0
n 40 36379.0
n 42 20788.0
n 43 57167.0
n 44 62364.0
n 45 5197.0
n 46 41576.0
n 47 10394.0
n 48 15591.0
a 0 1 0 359848.0 1.0
a 0 1 0 359848.0 1.0
a 0 2 0 359848.0 1.0
a 0 3 0 359848.0 1.0
a 0 4 0 769156.0 1.0
a 0 4 0 0.0 0.0
a 0 8 0 359848.0 18934.0
a 0 42 0 359848.0 25613.0
a 0 42 0 0.0 0.0
a 0 1 0 20788.0 0.0
a 0 1 0 62364.0 0.0
a 0 2 0 359848.0 1.0
a 0 2 0 0.0 0.0
a 0 2 0 0.0 0.0
a 0 3 0 359848.0 1.0
a 0 3 0 0.0 0.0
a 0 3 0 0.0 0.0
a 0 4 0 769156.0 1.0
a 0 4 0 0.0 0.0
a 0 8 0 0.0 0.0
a 0 8 0 0.0 0.0
a 0 8 0 359848.0 19106.0
a 0 42 0 359848.0 25629.0
a 0 42 0 0.0 0.0
a 1 2 0 359848.0 1.0
a 1 0 0 0.0 0.0
a 1 0 0 0.0 0.0
a 1 0 0 339060.0 1.0
a 1 0 0 297484.0 1.0
a 1 2 0 359848.0 1.0
a 1 3 0 359848.0 1.0
a 1 4 0 769156.0 1.0
a 1 20 0 359848.0 412912.0
a 1 39 0 359848.0 410549.0
a 1 2 0 0.0 0.0
a 1 2 0 0.0 0.0
a 1 3 0 359848.0 1.0
a 1 3 0 0.0 0.0
a 1 3 0 0.0 0.0
a 1 4 0 769156.0 1.0
a 1 4 0 0.0 0.0
a 1 4 0 0.0 0.0
a 1 20 0 359848.0 413655.0
a 1 20 0 0.0 0.0
a 1 20 0 0.0 0.0
a 1 39 0 359848.0 413347.0
a 1 39 0 0.0 0.0
a 1 39 0 0.0 0.0
a 2 3 0 359848.0 1.0
a 2 1 0 0.0 0.0
a 2 0 0 0.0 0.0
a 2 1 0 0.0 0.0
a 2 0 0 0.0 0.0
a 2 0 0 359848.0 1.0
a 2 0 0 359848.0 1.0
a 2 1 0 359848.0 1.0
a 2 1 0 359848.0 1.0
a 2 3 0 359848.0 1.0
a 2 4 0 769156.0 1.0
a 2 16 0 359848.0 101752.0
a 2 32 0 359848.0 409490.0
a 2 3 0 0.0 0.0
a 2 3 0 0.0 0.0
a 2 4 0 769156.0 1.0
a 2 4 0 0.0 0.0
a 2 4 0 0.0 0.0
a 2 16 0 0.0 0.0
a 2 16 0 0.0 0.0
a 2 16 0 359848.0 101410.0
a 2 32 0 359848.0 412105.0
a 2 32 0 0.0 0.0
a 2 32 0 0.0 0.0
a 3 27 0 359848.0 413792.0
a 3 2 0 0.0 0.0
a 3 0 0 0.0 0.0
a 3 1 0 0.0 0.0
a 3 2 0 0.0 0.0
a 3 0 0 0.0 0.0
a 3 0 0 359848.0 1.0
a 3 0 0 359848.0 1.0
a 3 1 0 0.0 0.0
a 3 1 0 359848.0 1.0
a 3 1 0 359848.0 1.0
a 3 2 0 359848.0 1.0
a 3 2 0 359848.0 1.0
a 3 4 0 769156.0 1.0
a 3 14 0 359848.0 26668.0
a 3 27 0 359848.0 409090.0
a 3 4 0 769156.0 1.0
a 3 4 0 0.0 0.0
a 3 4 0 0.0 0.0
a 3 14 0 359848.0 26268.0
a 3 14 0 0.0 0.0
a 3 14 0 0.0 0.0
a 3 27 0 0.0 0.0
a 3 27 0 0.0 0.0
a 4 0 0 0.0 0.0
a 4 0 0 769156.0 1.0
a 4 1 0 0.0 0.0
a 4 2 0 0.0 0.0
a 4 3 0 0.0 0.0
a 4 0 0 0.0 0.0
a 4 0 0 769156.0 1.0
a 4 1 0 0.0 0.0
a 4 1 0 769156.0 1.0
a 4 1 0 769156.0 1.0
a 4 2 0 0.0 0.0
a 4 2 0 769156.0 1.0
a 4 2 0 769156.0 1.0
a 4 3 0 0.0 0.0
a 4 3 0 769156.0 1.0
a 4 3 0 769156.0 1.0
a 5 6 0 719696.0 1.0
a 5 6 0 719696.0 1.0
a 5 7 0 769156.0 1.0
a 5 7 0 0.0 0.0
a 5 10 0 359848.0 398363.0
a 5 20 0 359848.0 604.0
a 5 6 0 0.0 0.0
a 5 6 0 0.0 0.0
a 5 7 0 769156.0 1.0
a 5 7 0 0.0 0.0
a 5 10 0 359848.0 399787.0
a 5 10 0 0.0 0.0
a 5 10 0 0.0 0.0
a 5 20 0 359848.0 604.0
a 5 20 0 0.0 0.0
a 5 20 0 0.0 0.0
a 6 29 0 359848.0 6409.0
a 6 5 0 0.0 0.0
a 6 5 0 0.0 0.0
a 6 5 0 719696.0 1.0
a 6 5 0 719696.0 1.0
a 6 7 0 769156.0 1.0
a 6 29 0 359848.0 6332.0
a 6 37 0 -74190.0 6353.0
a 6 7 0 1346023.0 1.0
a 6 7 0 1153734.0 0.0
a 6 7 0 1730601.0 0.0
a 6 29 0 0.0 0.0
a 6 29 0 0.0 0.0
a 6 37 0 142829.0 6299.0
a 6 37 0 0.0 0.0
a 6 37 0 -651057.0 0.0
a 7 5 0 0.0 0.0
a 7 5 0 769156.0 1.0
a 7 6 0 0.0 0.0
a 7 5 0 0.0 0.0
a 7 5 0 769156.0 1.0
a 7 6 0 -576867.0 0.0
a 7 6 0 -384578.0 1.0
a 7 6 0 -961445.0 1.0
a 8 9 0 359848.0 1.0
a 8 0 0 0.0 0.0
a 8 0 0 359848.0 19106.0
a 8 0 0 359848.0 18934.0
a 8 0 0 0.0 0.0
a 8 9 0 359848.0 1.0
a 8 10 0 359848.0 1.0
a 8 11 0 359848.0 1.0
a 8 12 0 769156.0 1.0
a 8 12 0 0.0 0.0
a 8 25 0 359848.0 366486.0
a 8 9 0 0.0 0.0
a 8 9 0 0.0 0.0
a 8 10 0 359848.0 1.0
a 8 10 0 0.0 0.0
a 8 10 0 0.0 0.0
a 8 11 0 359848.0 1.0
a 8 11 0 0.0 0.0
a 8 11 0 0.0 0.0
a 8 12 0 769156.0 1.0
a 8 12 0 0.0 0.0
a 8 25 0 359848.0 365435.0
a 8 25 0 0.0 0.0
a 8 25 0 0.0 0.0
a 9 10 0 359848.0 1.0
a 9 8 0 0.0 0.0
a 9 8 0 0.0 0.0
a 9 8 0 359848.0 1.0
a 9 8 0 359848.0 1.0
a 9 10 0 359848.0 1.0
a 9 11 0 359848.0 1.0
a 9 12 0 769156.0 1.0
a 9 14 0 359848.0 41359.0
a 9 17 0 339060.0 115319.0
a 9 35 0 359848.0 153350.0
a 9 10 0 0.0 0.0
a 9 10 0 0.0 0.0
a 9 11 0 396227.0 1.0
a 9 11 0 72758.0 0.0
a 9 11 0 109137.0 0.0
a 9 12 0 769156.0 1.0
a 9 12 0 0.0 0.0
a 9 12 0 0.0 0.0
a 9 14 0 359848.0 41424.0
a 9 14 0 0.0 0.0
a 9 14 0 0.0 0.0
a 9 17 0 349454.0 115153.0
a 9 17 0 0.0 0.0
a 9 17 0 -31182.0 0.0
a 9 35 0 359848.0 153589.0
a 9 35 0 0.0 0.0
a 9 35 0 0.0 0.0
a 10 28 0 359848.0 401700.0
a 10 9 0 0.0 0.0
a 10 5 0 0.0 0.0
a 10 8 0 0.0 0.0
a 10 9 0 0.0 0.0
a 10 5 0 0.0 0.0
a 10 5 0 359848.0 399787.0
a 10 5 0 359848.0 398363.0
a 10 8 0 0.0 0.0
a 10 8 0 359848.0 1.0
a 10 8 0 359848.0 1.0
a 10 9 0 359848.0 1.0
a 10 9 0 359848.0 1.0
a 10 11 0 359848.0 1.0
a 10 12 0 769156.0 1.0
a 10 28 0 359848.0 406236.0
a 10 11 0 359848.0 1.0
a 10 11 0 0.0 0.0
a 10 11 0 0.0 0.0
a 10 12 0 769156.0 1.0
a 10 12 0 0.0 0.0
a 10 12 0 0.0 0.0
a 10 28 0 0.0 0.0
a 10 28 0 0.0 0.0
a 11 21 0 359848.0 398516.0
a 11 8 0 0.0 0.0
a 11 9 0 0.0 0.0
a 11 10 0 0.0 0.0
a 11 8 0 0.0 0.0
a 11 8 0 359848.0 1.0
a 11 8 0 359848.0 1.0
a 11 9 0 -36379.0 0.0
a 11 9 0 287090.0 1.0
a 11 9 0 250711.0 1.0
a 11 10 0 0.0 0.0
a 11 10 0 359848.0 1.0
a 11 10 0 359848.0 1.0
a 11 12 0 769156.0 1.0
a 11 21 0 359848.0 399266.0
a 11 31 0 359848.0 399684.0
a 11 38 0 359848.0 400578.0
a 11 12 0 769156.0 1.0
a 11 12 0 0.0 0.0
a 11 12 0 0.0 0.0
a 11 21 0 103940.0 0.0
a 11 21 0 311820.0 0.0
a 11 31 0 359848.0 401192.0
a 11 31 0 0.0 0.0
a 11 31 0 0.0 0.0
a 11 38 0 359848.0 399728.0
a 11 38 0 0.0 0.0
a 11 38 0 0.0 0.0
a 12 8 0 0.0 0.0
a 12 8 0 769156.0 1.0
a 12 9 0 0.0 0.0
a 12 10 0 0.0 0.0
a 12 11 0 0.0 0.0
a 12 8 0 0.0 0.0
a 12 8 0 769156.0 1.0
a 12 9 0 0.0 0.0
a 12 9 0 769156.0 1.0
a 12 9 0 769156.0 1.0
a 12 10 0 0.0 0.0
a 12 10 0 769156.0 1.0
a 12 10 0 769156.0 1.0
a 12 11 0 0.0 0.0
a 12 11 0 769156.0 1.0
a 12 11 0 769156.0 1.0
a 13 14 0 719696.0 1.0
a 13 14 0 688514.0 1.0
a 13 15 0 769156.0 1.0
a 13 31 0 359848.0 433395.0
a 13 35 0 359848.0 114105.0
a 13 38 0 359848.0 436855.0
a 13 14 0 -10394.0 0.0
a 13 14 0 0.0 0.0
a 13 15 0 769156.0 1.0
a 13 15 0 0.0 0.0
a 13 15 0 0.0 0.0
a 13 31 0 359848.0 434139.0
a 13 31 0 0.0 0.0
a 13 31 0 0.0 0.0
a 13 35 0 359848.0 113453.0
a 13 35 0 0.0 0.0
a 13 35 0 0.0 0.0
a 13 38 0 359848.0 438246.0
a 13 38 0 0.0 0.0
a 13 38 0 0.0 0.0
a 14 15 0 769156.0 1.0
a 14 13 0 0.0 0.0
a 14 3 0 0.0 0.0
a 14 9 0 0.0 0.0
a 14 13 0 31182.0 0.0
a 14 3 0 0.0 0.0
a 14 3 0 359848.0 26268.0
a 14 3 0 359848.0 26668.0
a 14 9 0 0.0 0.0
a 14 9 0 359848.0 41424.0
a 14 9 0 359848.0 41359.0
a 14 13 0 730090.0 1.0
a 14 13 0 719696.0 1.0
a 14 15 0 769156.0 1.0
a 14 42 0 359848.0 790.0
a 14 47 0 359848.0 325794.0
a 14 15 0 0.0 0.0
a 14 15 0 0.0 0.0
a 14 42 0 359848.0 788.0
a 14 42 0 0.0 0.0
a 14 42 0 0.0 0.0
a 14 47 0 359848.0 325351.0
a 14 47 0 0.0 0.0
a 14 47 0 0.0 0.0
a 15 14 0 0.0 0.0
a 15 13 0 0.0 0.0
a 15 14 0 0.0 0.0
a 15 13 0 0.0 0.0
a 15 13 0 769156.0 1.0
a 15 13 0 769156.0 1.0
a 15 14 0 769156.0 1.0
a 15 14 0 769156.0 1.0
a 16 17 0 719696.0 1.0
a 16 2 0 0.0 0.0
a 16 2 0 359848.0 101410.0
a 16 2 0 359848.0 101752.0
a 16 2 0 0.0 0.0
a 16 17 0 719696.0 1.0
a 16 18 0 769156.0 1.0
a 16 18 0 0.0 0.0
a 16 39 0 359848.0 510238.0
a 16 17 0 0.0 0.0
a 16 17 0 0.0 0.0
a 16 18 0 769156.0 1.0
a 16 18 0 0.0 0.0
a 16 39 0 359848.0 514805.0
a 16 39 0 0.0 0.0
a 16 39 0 0.0 0.0
a 17 45 0 359848.0 40155.0
a 17 16 0 0.0 0.0
a 17 9 0 20788.0 0.0
a 17 16 0 0.0 0.0
a 17 9 0 10394.0 0.0
a 17 9 0 359848.0 115153.0
a 17 9 0 391030.0 115319.0
a 17 16 0 719696.0 1.0
a 17 16 0 719696.0 1.0
a 17 18 0 769156.0 1.0
a 17 34 0 359848.0 38697.0
a 17 45 0 359848.0 38919.0
a 17 18 0 769156.0 1.0
a 17 18 0 0.0 0.0
a 17 18 0 0.0 0.0
a 17 34 0 0.0 0.0
a 17 34 0 0.0 0.0
a 17 34 0 359848.0 38285.0
a 17 45 0 0.0 0.0
a 17 45 0 0.0 0.0
a 18 16 0 0.0 0.0
a 18 16 0 769156.0 1.0
a 18 17 0 0.0 0.0
a 18 16 0 0.0 0.0
a 18 16 0 769156.0 1.0
a 18 17 0 0.0 0.0
a 18 17 0 769156.0 1.0
a 18 17 0 769156.0 1.0
a 19 20 0 359848.0 1.0
a 19 20 0 359848.0 1.0
a 19 21 0 359848.0 1.0
a 19 22 0 359848.0 1.0
a 19 23 0 769156.0 1.0
a 19 23 0 0.0 0.0
a 19 40 0 359848.0 6862.0
a 19 20 0 0.0 0.0
a 19 20 0 0.0 0.0
a 19 21 0 359848.0 1.0
a 19 21 0 0.0 0.0
a 19 21 0 0.0 0.0
a 19 22 0 359848.0 1.0
a 19 22 0 0.0 0.0
a 19 22 0 0.0 0.0
a 19 23 0 769156.0 1.0
a 19 23 0 0.0 0.0
a 19 40 0 359848.0 6747.0
a 19 40 0 0.0 0.0
a 19 40 0 0.0 0.0
a 20 19 0 0.0 0.0
a 20 1 0 0.0 0.0
a 20 5 0 0.0 0.0
a 20 19 0 0.0 0.0
a 20 1 0 0.0 0.0
a 20 1 0 359848.0 413655.0
a 20 1 0 359848.0 412912.0
a 20 5 0 0.0 0.0
a 20 5 0 359848.0 604.0
a 20 5 0 359848.0 604.0
a 20 19 0 359848.0 1.0
a 20 19 0 359848.0 1.0
a 20 21 0 359848.0 1.0
a 20 22 0 359848.0 1.0
a 20 23 0 769156.0 1.0
a 20 21 0 359848.0 1.0
a 20 21 0 0.0 0.0
a 20 21 0 0.0 0.0
a 20 22 0 359848.0 1.0
a 20 22 0 0.0 0.0
a 20 22 0 0.0 0.0
a 20 23 0 769156.0 1.0
a 20 23 0 0.0 0.0
a 20 23 0 0.0 0.0
a 21 22 0 359848.0 1.0
a 21 11 0 0.0 0.0
a 21 11 0 0.0 0.0
a 21 19 0 0.0 0.0
a 21 20 0 0.0 0.0
a 21 11 0 255908.0 399266.0
a 21 11 0 48028.0 398516.0
a 21 19 0 0.0 0.0
a 21 19 0 359848.0 1.0
a 21 19 0 359848.0 1.0
a 21 20 0 0.0 0.0
a 21 20 0 359848.0 1.0
a 21 20 0 359848.0 1.0
a 21 22 0 359848.0 1.0
a 21 23 0 769156.0 1.0
a 21 22 0 0.0 0.0
a 21 22 0 0.0 0.0
a 21 23 0 769156.0 1.0
a 21 23 0 0.0 0.0
a 21 23 0 0.0 0.0
a 22 21 0 0.0 0.0
a 22 19 0 0.0 0.0
a 22 20 0 0.0 0.0
a 22 21 0 0.0 0.0
a 22 19 0 0.0 0.0
a 22 19 0 359848.0 1.0
a 22 19 0 359848.0 1.0
a 22 20 0 0.0 0.0
a 22 20 0 359848.0 1.0
a 22 20 0 359848.0 1.0
a 22 21 0 359848.0 1.0
a 22 21 0 359848.0 1.0
a 22 23 0 769156.0 1.0
a 22 27 0 359848.0 6633.0
a 22 23 0 769156.0 1.0
a 22 23 0 0.0 0.0
a 22 23 0 0.0 0.0
a 22 27 0 359848.0 6864.0
a 22 27 0 0.0 0.0
a 22 27 0 0.0 0.0
a 23 19 0 0.0 0.0
a 23 19 0 769156.0 1.0
a 23 20 0 0.0 0.0
a 23 21 0 0.0 0.0
a 23 22 0 0.0 0.0
a 23 19 0 0.0 0.0
a 23 19 0 769156.0 1.0
a 23 20 0 0.0 0.0
a 23 20 0 769156.0 1.0
a 23 20 0 769156.0 1.0
a 23 21 0 0.0 0.0
a 23 21 0 769156.0 1.0
a 23 21 0 769156.0 1.0
a 23 22 0 0.0 0.0
a 23 22 0 769156.0 1.0
a 23 22 0 769156.0 1.0
a 24 30 0 359848.0 758666.0
a 24 25 0 359848.0 1.0
a 24 26 0 769156.0 1.0
a 24 30 0 359848.0 758659.0
a 24 47 0 359848.0 1.0
a 24 48 0 359848.0 1.0
a 24 25 0 359848.0 1.0
a 24 25 0 0.0 0.0
a 24 25 0 0.0 0.0
a 24 26 0 769156.0 1.0
a 24 26 0 0.0 0.0
a 24 26 0 0.0 0.0
a 24 30 0 0.0 0.0
a 24 30 0 0.0 0.0
a 24 47 0 359848.0 1.0
a 24 47 0 0.0 0.0
a 24 47 0 0.0 0.0
a 24 48 0 375439.0 1.0
a 24 48 0 31182.0 0.0
a 24 48 0 46773.0 0.0
a 25 26 0 769156.0 1.0
a 25 8 0 0.0 0.0
a 25 24 0 0.0 0.0
a 25 8 0 0.0 0.0
a 25 8 0 359848.0 365435.0
a 25 8 0 359848.0 366486.0
a 25 24 0 0.0 0.0
a 25 24 0 359848.0 1.0
a 25 24 0 359848.0 1.0
a 25 26 0 769156.0 1.0
a 25 47 0 359848.0 1.0
a 25 48 0 359848.0 1.0
a 25 26 0 0.0 0.0
a 25 26 0 0.0 0.0
a 25 47 0 359848.0 1.0
a 25 47 0 0.0 0.0
a 25 47 0 0.0 0.0
a 25 48 0 370242.0 1.0
a 25 48 0 20788.0 0.0
a 25 48 0 31182.0 0.0
a 26 25 0 0.0 0.0
a 26 24 0 0.0 0.0
a 26 25 0 0.0 0.0
a 26 24 0 0.0 0.0
a 26 24 0 769156.0 1.0
a 26 24 0 769156.0 1.0
a 26 25 0 769156.0 1.0
a 26 25 0 769156.0 1.0
a 26 47 0 769156.0 1.0
a 26 48 0 769156.0 1.0
a 26 47 0 769156.0 1.0
a 26 47 0 0.0 0.0
a 26 47 0 0.0 0.0
a 26 48 0 769156.0 1.0
a 26 48 0 0.0 0.0
a 26 48 0 0.0 0.0
a 27 3 0 0.0 0.0
a 27 3 0 0.0 0.0
a 27 22 0 0.0 0.0
a 27 3 0 359848.0 409090.0
a 27 3 0 359848.0 413792.0
a 27 22 0 0.0 0.0
a 27 22 0 359848.0 6864.0
a 27 22 0 359848.0 6633.0
a 27 28 0 359848.0 1.0
a 27 29 0 359848.0 1.0
a 27 30 0 359848.0 1.0
a 27 31 0 359848.0 1.0
a 27 32 0 359848.0 1.0
a 27 33 0 769156.0 1.0
a 27 33 0 0.0 0.0
a 27 43 0 359848.0 1501.0
a 27 43 0 0.0 0.0
a 27 28 0 359848.0 1.0
a 27 28 0 0.0 0.0
a 27 28 0 0.0 0.0
a 27 29 0 359848.0 1.0
a 27 29 0 0.0 0.0
a 27 29 0 0.0 0.0
a 27 30 0 359848.0 1.0
a 27 30 0 0.0 0.0
a 27 30 0 0.0 0.0
a 27 31 0 359848.0 1.0
a 27 31 0 0.0 0.0
a 27 31 0 0.0 0.0
a 27 32 0 359848.0 1.0
a 27 32 0 0.0 0.0
a 27 32 0 0.0 0.0
a 27 33 0 769156.0 1.0
a 27 33 0 0.0 0.0
a 27 43 0 359848.0 1475.0
a 27 43 0 0.0 0.0
a 28 10 0 0.0 0.0
a 28 10 0 0.0 0.0
a 28 27 0 0.0 0.0
a 28 10 0 359848.0 406236.0
a 28 10 0 359848.0 401700.0
a 28 27 0 0.0 0.0
a 28 27 0 359848.0 1.0
a 28 27 0 359848.0 1.0
a 28 29 0 359848.0 1.0
a 28 30 0 359848.0 1.0
a 28 31 0 359848.0 1.0
a 28 32 0 359848.0 1.0
a 28 33 0 769156.0 1.0
a 28 37 0 359848.0 27.0
a 28 46 0 359848.0 27.0
a 28 29 0 359848.0 1.0
a 28 29 0 0.0 0.0
a 28 29 0 0.0 0.0
a 28 30 0 359848.0 1.0
a 28 30 0 0.0 0.0
a 28 30 0 0.0 0.0
a 28 31 0 359848.0 1.0
a 28 31 0 0.0 0.0
a 28 31 0 0.0 0.0
a 28 32 0 359848.0 1.0
a 28 32 0 0.0 0.0
a 28 32 0 0.0 0.0
a 28 33 0 769156.0 1.0
a 28 33 0 0.0 0.0
a 28 33 0 0.0 0.0
a 28 37 0 359848.0 28.0
a 28 37 0 0.0 0.0
a 28 37 0 0.0 0.0
a 28 46 0 359848.0 28.0
a 28 46 0 0.0 0.0
a 28 46 0 0.0 0.0
a 29 6 0 0.0 0.0
a 29 6 0 0.0 0.0
a 29 27 0 0.0 0.0
a 29 28 0 0.0 0.0
a 29 6 0 359848.0 6332.0
a 29 6 0 359848.0 6409.0
a 29 27 0 0.0 0.0
a 29 27 0 359848.0 1.0
a 29 27 0 359848.0 1.0
a 29 28 0 0.0 0.0
a 29 28 0 359848.0 1.0
a 29 28 0 359848.0 1.0
a 29 30 0 359848.0 1.0
a 29 31 0 359848.0 1.0
a 29 32 0 359848.0 1.0
a 29 33 0 769156.0 1.0
a 29 40 0 359848.0 28.0
a 29 43 0 359848.0 1468.0
a 29 30 0 359848.0 1.0
a 29 30 0 0.0 0.0
a 29 30 0 0.0 0.0
a 29 31 0 359848.0 1.0
a 29 31 0 0.0 0.0
a 29 31 0 0.0 0.0
a 29 32 0 359848.0 1.0
a 29 32 0 0.0 0.0
a 29 32 0 0.0 0.0
a 29 33 0 769156.0 1.0
a 29 33 0 0.0 0.0
a 29 33 0 0.0 0.0
a 29 40 0 359848.0 28.0
a 29 40 0 0.0 0.0
a 29 40 0 0.0 0.0
a 29 43 0 359848.0 1469.0
a 29 43 0 0.0 0.0
a 29 43 0 0.0 0.0
a 30 31 0 359848.0 1.0
a 30 24 0 0.0 0.0
a 30 24 0 0.0 0.0
a 30 27 0 0.0 0.0
a 30 28 0 0.0 0.0
a 30 29 0 0.0 0.0
a 30 24 0 359848.0 758659.0
a 30 24 0 359848.0 758666.0
a 30 27 0 0.0 0.0
a 30 27 0 359848.0 1.0
a 30 27 0 359848.0 1.0
a 30 28 0 0.0 0.0
a 30 28 0 359848.0 1.0
a 30 28 0 359848.0 1.0
a 30 29 0 0.0 0.0
a 30 29 0 359848.0 1.0
a 30 29 0 359848.0 1.0
a 30 31 0 359848.0 1.0
a 30 32 0 359848.0 1.0
a 30 33 0 769156.0 1.0
a 30 44 0 359848.0 1017.0
a 30 31 0 0.0 0.0
a 30 31 0 0.0 0.0
a 30 32 0 359848.0 1.0
a 30 32 0 0.0 0.0
a 30 32 0 0.0 0.0
a 30 33 0 769156.0 1.0
a 30 33 0 0.0 0.0
a 30 33 0 0.0 0.0
a 30 44 0 359848.0 1005.0
a 30 44 0 0.0 0.0
a 30 44 0 0.0 0.0
a 31 32 0 359848.0 1.0
a 31 30 0 0.0 0.0
a 31 11 0 0.0 0.0
a 31 13 0 0.0 0.0
a 31 27 0 0.0 0.0
a 31 28 0 0.0 0.0
a 31 29 0 0.0 0.0
a 31 30 0 0.0 0.0
a 31 11 0 0.0 0.0
a 31 11 0 359848.0 401192.0
a 31 11 0 359848.0 399684.0
a 31 13 0 0.0 0.0
a 31 13 0 359848.0 434139.0
a 31 13 0 359848.0 433395.0
a 31 27 0 0.0 0.0
a 31 27 0 359848.0 1.0
a 31 27 0 359848.0 1.0
a 31 28 0 0.0 0.0
a 31 28 0 359848.0 1.0
a 31 28 0 359848.0 1.0
a 31 29 0 0.0 0.0
a 31 29 0 359848.0 1.0
a 31 29 0 359848.0 1.0
a 31 30 0 359848.0 1.0
a 31 30 0 359848.0 1.0
a 31 32 0 359848.0 1.0
a 31 33 0 769156.0 1.0
a 31 46 0 359848.0 27.0
a 31 32 0 0.0 0.0
a 31 32 0 0.0 0.0
a 31 33 0 769156.0 1.0
a 31 33 0 0.0 0.0
a 31 33 0 0.0 0.0
a 31 46 0 359848.0 27.0
a 31 46 0 0.0 0.0
a 31 46 0 0.0 0.0
a 32 44 0 359848.0 1003.0
a 32 31 0 0.0 0.0
a 32 2 0 0.0 0.0
a 32 27 0 0.0 0.0
a 32 28 0 0.0 0.0
a 32 29 0 0.0 0.0
a 32 30 0 0.0 0.0
a 32 31 0 0.0 0.0
a 32 2 0 0.0 0.0
a 32 2 0 359848.0 412105.0
a 32 2 0 359848.0 409490.0
a 32 27 0 0.0 0.0
a 32 27 0 359848.0 1.0
a 32 27 0 359848.0 1.0
a 32 28 0 0.0 0.0
a 32 28 0 359848.0 1.0
a 32 28 0 359848.0 1.0
a 32 29 0 0.0 0.0
a 32 29 0 359848.0 1.0
a 32 29 0 359848.0 1.0
a 32 30 0 0.0 0.0
a 32 30 0 359848.0 1.0
a 32 30 0 359848.0 1.0
a 32 31 0 359848.0 1.0
a 32 31 0 359848.0 1.0
a 32 33 0 769156.0 1.0
a 32 44 0 359848.0 1005.0
a 32 33 0 769156.0 1.0
a 32 33 0 0.0 0.0
a 32 33 0 0.0 0.0
a 32 44 0 0.0 0.0
a 32 44 0 0.0 0.0
a 33 27 0 0.0 0.0
a 33 27 0 769156.0 1.0
a 33 28 0 0.0 0.0
a 33 29 0 0.0 0.0
a 33 30 0 0.0 0.0
a 33 31 0 0.0 0.0
a 33 32 0 0.0 0.0
a 33 27 0 0.0 0.0
a 33 27 0 769156.0 1.0
a 33 28 0 0.0 0.0
a 33 28 0 769156.0 1.0
a 33 28 0 769156.0 1.0
a 33 29 0 0.0 0.0
a 33 29 0 769156.0 1.0
a 33 29 0 769156.0 1.0
a 33 30 0 0.0 0.0
a 33 30 0 769156.0 1.0
a 33 30 0 769156.0 1.0
a 33 31 0 0.0 0.0
a 33 31 0 769156.0 1.0
a 33 31 0 769156.0 1.0
a 33 32 0 0.0 0.0
a 33 32 0 769156.0 1.0
a 33 32 0 769156.0 1.0
a 34 35 0 719696.0 1.0
a 34 17 0 0.0 0.0
a 34 17 0 359848.0 38285.0
a 34 17 0 359848.0 38697.0
a 34 17 0 0.0 0.0
a 34 35 0 719696.0 1.0
a 34 36 0 769156.0 1.0
a 34 37 0 359848.0 550166.0
a 34 45 0 359848.0 53.0
a 34 35 0 0.0 0.0
a 34 35 0 0.0 0.0
a 34 36 0 769156.0 1.0
a 34 36 0 0.0 0.0
a 34 36 0 0.0 0.0
a 34 37 0 359848.0 544014.0
a 34 37 0 0.0 0.0
a 34 37 0 0.0 0.0
a 34 45 0 359848.0 53.0
a 34 45 0 0.0 0.0
a 34 45 0 0.0 0.0
a 35 36 0 769156.0 1.0
a 35 34 0 0.0 0.0
a 35 9 0 0.0 0.0
a 35 13 0 0.0 0.0
a 35 34 0 0.0 0.0
a 35 9 0 0.0 0.0
a 35 9 0 359848.0 153589.0
a 35 9 0 359848.0 153350.0
a 35 13 0 0.0 0.0
a 35 13 0 359848.0 113453.0
a 35 13 0 359848.0 114105.0
a 35 34 0 719696.0 1.0
a 35 34 0 719696.0 1.0
a 35 36 0 769156.0 1.0
a 35 48 0 359848.0 213998.0
a 35 36 0 0.0 0.0
a 35 36 0 0.0 0.0
a 35 48 0 359848.0 213104.0
a 35 48 0 0.0 0.0
a 35 48 0 0.0 0.0
a 36 35 0 0.0 0.0
a 36 34 0 0.0 0.0
a 36 35 0 0.0 0.0
a 36 34 0 0.0 0.0
a 36 34 0 769156.0 1.0
a 36 34 0 769156.0 1.0
a 36 35 0 769156.0 1.0
a 36 35 0 769156.0 1.0
a 37 38 0 359848.0 1.0
a 37 6 0 434038.0 0.0
a 37 28 0 0.0 0.0
a 37 34 0 0.0 0.0
a 37 6 0 217019.0 0.0
a 37 6 0 359848.0 6299.0
a 37 6 0 1010905.0 6353.0
a 37 28 0 0.0 0.0
a 37 28 0 359848.0 28.0
a 37 28 0 359848.0 27.0
a 37 34 0 0.0 0.0
a 37 34 0 359848.0 544014.0
a 37 34 0 359848.0 550166.0
a 37 38 0 359848.0 1.0
a 37 39 0 359848.0 1.0
a 37 40 0 359848.0 1.0
a 37 41 0 769156.0 1.0
a 37 41 0 0.0 0.0
a 37 46 0 359848.0 1.0
a 37 38 0 0.0 0.0
a 37 38 0 0.0 0.0
a 37 39 0 359848.0 1.0
a 37 39 0 0.0 0.0
a 37 39 0 0.0 0.0
a 37 40 0 359848.0 1.0
a 37 40 0 0.0 0.0
a 37 40 0 0.0 0.0
a 37 41 0 769156.0 1.0
a 37 41 0 0.0 0.0
a 37 46 0 359848.0 1.0
a 37 46 0 0.0 0.0
a 37 46 0 0.0 0.0
a 38 39 0 359848.0 1.0
a 38 37 0 0.0 0.0
a 38 11 0 0.0 0.0
a 38 13 0 0.0 0.0
a 38 37 0 0.0 0.0
a 38 11 0 0.0 0.0
a 38 11 0 359848.0 399728.0
a 38 11 0 359848.0 400578.0
a 38 13 0 0.0 0.0
a 38 13 0 359848.0 438246.0
a 38 13 0 359848.0 436855.0
a 38 37 0 359848.0 1.0
a 38 37 0 359848.0 1.0
a 38 39 0 359848.0 1.0
a 38 40 0 359848.0 1.0
a 38 41 0 769156.0 1.0
a 38 43 0 359848.0 1470.0
a 38 46 0 359848.0 1.0
a 38 39 0 0.0 0.0
a 38 39 0 0.0 0.0
a 38 40 0 359848.0 1.0
a 38 40 0 0.0 0.0
a 38 40 0 0.0 0.0
a 38 41 0 769156.0 1.0
a 38 41 0 0.0 0.0
a 38 41 0 0.0 0.0
a 38 43 0 359848.0 1472.0
a 38 43 0 0.0 0.0
a 38 43 0 0.0 0.0
a 38 46 0 359848.0 1.0
a 38 46 0 0.0 0.0
a 38 46 0 0.0 0.0
a 39 40 0 359848.0 1.0
a 39 38 0 0.0 0.0
a 39 1 0 0.0 0.0
a 39 16 0 0.0 0.0
a 39 37 0 0.0 0.0
a 39 38 0 0.0 0.0
a 39 1 0 0.0 0.0
a 39 1 0 359848.0 413347.0
a 39 1 0 359848.0 410549.0
a 39 16 0 0.0 0.0
a 39 16 0 359848.0 514805.0
a 39 16 0 359848.0 510238.0
a 39 37 0 0.0 0.0
a 39 37 0 359848.0 1.0
a 39 37 0 359848.0 1.0
a 39 38 0 359848.0 1.0
a 39 38 0 359848.0 1.0
a 39 40 0 359848.0 1.0
a 39 41 0 769156.0 1.0
a 39 44 0 359848.0 1036.0
a 39 40 0 0.0 0.0
a 39 40 0 0.0 0.0
a 39 41 0 769156.0 1.0
a 39 41 0 0.0 0.0
a 39 41 0 0.0 0.0
a 39 44 0 359848.0 1033.0
a 39 44 0 0.0 0.0
a 39 44 0 0.0 0.0
a 40 46 0 359848.0 1.0
a 40 39 0 0.0 0.0
a 40 19 0 0.0 0.0
a 40 29 0 0.0 0.0
a 40 37 0 0.0 0.0
a 40 38 0 0.0 0.0
a 40 39 0 0.0 0.0
a 40 19 0 0.0 0.0
a 40 19 0 359848.0 6747.0
a 40 19 0 359848.0 6862.0
a 40 29 0 0.0 0.0
a 40 29 0 359848.0 28.0
a 40 29 0 359848.0 28.0
a 40 37 0 0.0 0.0
a 40 37 0 359848.0 1.0
a 40 37 0 359848.0 1.0
a 40 38 0 0.0 0.0
a 40 38 0 359848.0 1.0
a 40 38 0 359848.0 1.0
a 40 39 0 359848.0 1.0
a 40 39 0 359848.0 1.0
a 40 41 0 769156.0 1.0
a 40 46 0 359848.0 1.0
a 40 41 0 769156.0 1.0
a 40 41 0 0.0 0.0
a 40 41 0 0.0 0.0
a 40 46 0 0.0 0.0
a 40 46 0 0.0 0.0
a 41 37 0 0.0 0.0
a 41 37 0 769156.0 1.0
a 41 38 0 0.0 0.0
a 41 39 0 0.0 0.0
a 41 40 0 0.0 0.0
a 41 37 0 0.0 0.0
a 41 37 0 769156.0 1.0
a 41 38 0 0.0 0.0
a 41 38 0 769156.0 1.0
a 41 38 0 769156.0 1.0
a 41 39 0 0.0 0.0
a 41 39 0 769156.0 1.0
a 41 39 0 769156.0 1.0
a 41 40 0 0.0 0.0
a 41 40 0 769156.0 1.0
a 41 40 0 769156.0 1.0
a 42 0 0 0.0 0.0
a 42 0 0 359848.0 25629.0
a 42 14 0 0.0 0.0
a 42 0 0 0.0 0.0
a 42 0 0 359848.0 25613.0
a 42 14 0 0.0 0.0
a 42 14 0 359848.0 788.0
a 42 14 0 359848.0 790.0
a 43 27 0 0.0 0.0
a 43 27 0 359848.0 1475.0
a 43 29 0 0.0 0.0
a 43 38 0 0.0 0.0
a 43 27 0 0.0 0.0
a 43 27 0 359848.0 1501.0
a 43 29 0 0.0 0.0
a 43 29 0 359848.0 1469.0
a 43 29 0 359848.0 1468.0
a 43 38 0 0.0 0.0
a 43 38 0 359848.0 1472.0
a 43 38 0 359848.0 1470.0
a 44 32 0 0.0 0.0
a 44 30 0 0.0 0.0
a 44 32 0 0.0 0.0
a 44 39 0 0.0 0.0
a 44 30 0 0.0 0.0
a 44 30 0 359848.0 1005.0
a 44 30 0 359848.0 1017.0
a 44 32 0 359848.0 1005.0
a 44 32 0 359848.0 1003.0
a 44 39 0 0.0 0.0
a 44 39 0 359848.0 1033.0
a 44 39 0 359848.0 1036.0
a 45 17 0 0.0 0.0
a 45 17 0 0.0 0.0
a 45 34 0 0.0 0.0
a 45 17 0 359848.0 38919.0
a 45 17 0 359848.0 40155.0
a 45 34 0 0.0 0.0
a 45 34 0 359848.0 53.0
a 45 34 0 359848.0 53.0
a 46 40 0 0.0 0.0
a 46 28 0 0.0 0.0
a 46 31 0 0.0 0.0
a 46 37 0 0.0 0.0
a 46 38 0 0.0 0.0
a 46 40 0 0.0 0.0
a 46 28 0 0.0 0.0
a 46 28 0 359848.0 28.0
a 46 28 0 359848.0 27.0
a 46 31 0 0.0 0.0
a 46 31 0 359848.0 27.0
a 46 31 0 359848.0 27.0
a 46 37 0 0.0 0.0
a 46 37 0 359848.0 1.0
a 46 37 0 359848.0 1.0
a 46 38 0 0.0 0.0
a 46 38 0 359848.0 1.0
a 46 38 0 359848.0 1.0
a 46 40 0 359848.0 1.0
a 46 40 0 359848.0 1.0
a 47 48 0 359848.0 1.0
a 47 14 0 0.0 0.0
a 47 24 0 0.0 0.0
a 47 25 0 0.0 0.0
a 47 26 0 0.0 0.0
a 47 14 0 0.0 0.0
a 47 14 0 359848.0 325351.0
a 47 14 0 359848.0 325794.0
a 47 24 0 0.0 0.0
a 47 24 0 359848.0 1.0
a 47 24 0 359848.0 1.0
a 47 25 0 0.0 0.0
a 47 25 0 359848.0 1.0
a 47 25 0 359848.0 1.0
a 47 26 0 0.0 0.0
a 47 26 0 769156.0 1.0
a 47 26 0 769156.0 1.0
a 47 48 0 359848.0 1.0
a 47 48 0 0.0 0.0
a 47 48 0 0.0 0.0
a 48 47 0 0.0 0.0
a 48 24 0 0.0 0.0
a 48 25 0 0.0 0.0
a 48 26 0 0.0 0.0
a 48 35 0 0.0 0.0
a 48 47 0 0.0 0.0
a 48 24 0 -15591.0 0.0
a 48 24 0 328666.0 1.0
a 48 24 0 313075.0 1.0
a 48 25 0 -10394.0 0.0
a 48 25 0 339060.0 1.0
a 48 25 0 328666.0 1.0
a 48 26 0 0.0 0.0
a 48 26 0 769156.0 1.0
a 48 26 0 769156.0 1.0
a 48 35 0 0.0 0.0
a 48 35 0 359848.0 213104.0
a 48 35 0 359848.0 213998.0
a 48 47 0 359848.0 1.0
a 48 47 0 359848.0 1.0
